g3 0 1 0	# problem d7n5R2R6d005d1
 5 7 1 0 2	# vars, constraints, objectives, ranges, eqns
 3 1	# nonlinear constraints, objectives
 0 0	# network constraints: nonlinear, linear
 5 5 5	# nonlinear vars in constraints, objectives, both
 0 0 0 1	# linear network variables; functions; arith, flags
 0 0 0 0 0	# discrete variables: binary, integer, nonlinear (b,c,o)
 35 5	# nonzeros in Jacobian, gradients
 0 0	# max name lengths: constraints, variables
 0 0 0 0 0	# common exprs: b,c,o,c1,o1
b
0 0.03 2.49
0 0.64 2.49
0 0.97 2.92
0 0.17 2.86
0 0.78 2.53
r
2 92.483
2 59.866
2 321.743
4 40.812
4 25.38
2 54.075
2 40.575
C0
o2
o2
o2
n9.06
v1
v2
v4
C1
o54
5
o2
o2
o2
n2.62
v1
v2
v4
o2
o2
o2
o2
n4.75
v0
v1
v1
v4
o16
o2
o2
o2
o2
n3.56
v0
v3
v3
v4
o16
o2
o2
o2
o2
n1.5
v1
v1
v2
v3
o2
o2
o2
o2
n2.02
v1
v2
v4
v4
C2
o54
10
o2
o2
o2
n0.88
v1
v2
v4
o2
o2
o2
o2
n0.99
v0
v1
v1
v4
o2
o2
o2
o2
n8.25
v0
v3
v3
v4
o2
o2
o2
o2
n5.57
v1
v1
v2
v3
o2
o2
o2
o2
n8.81
v1
v2
v4
v4
o2
o2
o2
o2
o2
n0.48
v0
v0
v1
v1
v4
o2
o2
o2
o2
o2
n2.86
v0
v0
v2
v2
v4
o2
o2
o2
o2
o2
n7.05
v0
v1
v1
v3
v4
o2
o2
o2
o2
o2
n0.67
v0
v1
v2
v2
v2
o2
o2
o2
o2
o2
n4.13
v0
v2
v3
v3
v3
C3
n0
C4
n0
C5
n0
C6
n0
O0 0
o54
39
o2
o2
o2
n3.77
v1
v2
v4
o2
o2
o2
o2
n2.63
v0
v1
v1
v4
o2
o2
o2
o2
n7.88
v0
v3
v3
v4
o2
o2
o2
o2
n2.59
v1
v1
v2
v3
o2
o2
o2
o2
n4.18
v1
v2
v4
v4
o2
o2
o2
o2
o2
n9.82
v0
v0
v1
v1
v4
o2
o2
o2
o2
o2
n0.16
v0
v0
v2
v2
v4
o16
o2
o2
o2
o2
o2
n8.58
v0
v1
v1
v3
v4
o2
o2
o2
o2
o2
n5.76
v0
v1
v2
v2
v2
o2
o2
o2
o2
o2
n2.71
v0
v2
v3
v3
v3
o2
o2
o2
o2
o2
o2
n5.98
v0
v0
v2
v2
v2
v2
o2
o2
o2
o2
o2
o2
n2.11
v0
v0
v2
v2
v2
v4
o2
o2
o2
o2
o2
o2
n2.02
v0
v1
v1
v2
v2
v2
o2
o2
o2
o2
o2
o2
n4.71
v0
v1
v1
v2
v2
v3
o2
o2
o2
o2
o2
o2
n0.94
v0
v1
v2
v2
v4
v4
o2
o2
o2
o2
o2
o2
n6.56
v0
v1
v3
v3
v4
v4
o2
o2
o2
o2
o2
o2
n9.43
v1
v2
v2
v3
v3
v3
o2
o2
o2
o2
o2
o2
n8.01
v1
v3
v3
v3
v3
v4
o16
o2
o2
o2
o2
o2
o2
o2
n1.86
v0
v0
v0
v0
v0
v0
v1
o2
o2
o2
o2
o2
o2
o2
n8.76
v0
v0
v0
v0
v0
v1
v2
o16
o2
o2
o2
o2
o2
o2
o2
n8
v0
v0
v0
v0
v0
v1
v3
o2
o2
o2
o2
o2
o2
o2
n9.5
v0
v0
v0
v1
v4
v4
v4
o16
o2
o2
o2
o2
o2
o2
o2
n0.59
v0
v0
v0
v3
v3
v4
v4
o2
o2
o2
o2
o2
o2
o2
n3.1
v0
v0
v1
v1
v4
v4
v4
o2
o2
o2
o2
o2
o2
o2
n8.26
v0
v1
v1
v1
v2
v2
v3
o2
o2
o2
o2
o2
o2
o2
n3.02
v0
v1
v1
v1
v2
v2
v4
o2
o2
o2
o2
o2
o2
o2
n3.99
v0
v1
v1
v2
v3
v3
v4
o2
o2
o2
o2
o2
o2
o2
n1.87
v0
v1
v1
v2
v4
v4
v4
o2
o2
o2
o2
o2
o2
o2
n4.4
v0
v1
v2
v2
v2
v3
v4
o2
o2
o2
o2
o2
o2
o2
n7.85
v0
v3
v3
v3
v3
v3
v3
o2
o2
o2
o2
o2
o2
o2
n0.29
v1
v1
v1
v1
v1
v1
v3
o2
o2
o2
o2
o2
o2
o2
n1.89
v1
v1
v1
v1
v4
v4
v4
o2
o2
o2
o2
o2
o2
o2
n3.66
v1
v1
v1
v2
v2
v2
v4
o16
o2
o2
o2
o2
o2
o2
o2
n3.4
v1
v1
v2
v2
v2
v3
v3
o2
o2
o2
o2
o2
o2
o2
n1.56
v1
v1
v3
v4
v4
v4
v4
o2
o2
o2
o2
o2
o2
o2
n7.31
v1
v2
v2
v2
v2
v3
v3
o16
o2
o2
o2
o2
o2
o2
o2
n2.04
v2
v2
v2
v2
v3
v3
v3
o2
o2
o2
o2
o2
o2
o2
n0.24
v2
v2
v2
v3
v3
v3
v4
o2
o2
o2
o2
o2
o2
o2
n2.56
v2
v2
v4
v4
v4
v4
v4
k4
7
14
21
28
J0 5
0 7.03
1 0.08
2 8.71
3 4.98
4 8.08
J1 5
0 5.48
1 0.81
2 7.05
3 2.41
4 4.77
J2 5
0 1.1
1 0.14
2 0.96
3 6.26
4 9.17
J3 5
0 3.55
1 6.76
2 6.28
3 7.28
4 1.52
J4 5
0 8.59
1 1.31
2 0.74
3 -1.5
4 8.06
J5 5
0 7.68
1 5.91
2 9.92
3 4.85
4 5.14
J6 5
0 6.49
1 4.3
2 5.59
3 3.9
4 5.37
G0 5
0 6.09
1 9.48
2 6.72
3 7.19
4 6.35
